1631671
42 12 4831
12 24 13443
24 61 5437
61 3 12947
3 21 17216
21 30 34374
30 25 1249
25 29 9940
29 60 6419
60 19 15596
19 49 8895
49 23 4353
23 6 16175
6 41 10602
41 64 28668
64 67 14572
67 38 15200
38 7 28523
7 11 50738
11 66 13370
66 26 57991
26 55 61621
55 34 20835
34 46 36286
46 43 69394
43 22 102153
22 31 39447
31 14 70585
14 52 39276
52 33 101509
33 57 88918
57 18 27906
18 10 28652
10 44 75759
44 53 84806
53 37 6554
37 62 30446
62 39 8740
39 51 11004
51 35 8926
35 68 19070
68 15 37538
15 8 6874
8 50 31557
50 28 10810
28 36 23031
36 59 8563
59 16 10880
16 63 14689
63 48 23516
48 2 7938
2 9 17744
9 58 1777
58 17 6718
17 27 1445
27 45 8214
45 65 16726
65 20 13332
20 4 4440
4 47 12782
47 13 9114
13 54 13536
54 1 18207
1 5 16009
5 40 3130
40 56 3489
56 32 1427
32 42 5759
